multiobj/solutions/Ter.5.2.-0.40.3.out
13 2
3 0 2 1 4 
1798824 4391042 
4 0 2 1 3 
1830592 4120794 
4 1 3 0 2 
1932608 3584880 
4 1 0 3 2 
2039324 3531832 
0 1 3 4 2 
2048444 3457152 
0 1 4 3 2 
2246612 3312704 
0 1 3 2 4 
2767790 3226816 
0 1 4 2 3 
2898758 3007312 
3 0 1 4 2 
3060648 2961012 
1 4 0 3 2 
3147400 2928228 
4 0 1 3 2 
3211720 2747924 
1 0 4 3 2 
3303048 2691168 
1 4 0 2 3 
4010242 2546816 
